n_res = 4;
rc = [ 18, 21, 21, 23 ];
n_tasks = 30;
d = [ 9, 3, 1, 2, 9, 4, 1, 5, 5, 6, 2, 6, 6, 10, 6, 5, 4, 1, 9, 2, 1, 4, 3, 3, 8, 4, 9, 5, 2, 4 ];
rr = [| 18, 18, 18, 18, 18, 18, 18, 18, 18, 18, 18, 18, 18, 18, 18, 18, 18, 18, 18, 18, 18, 18, 18, 18, 18, 18, 18, 18, 18, 18
      | 21, 21, 21, 21, 21, 21, 21, 21, 21, 21, 21, 21, 21, 21, 21, 21, 21, 21, 21, 21, 21, 21, 21, 21, 21, 21, 21, 21, 21, 21
      | 21, 21, 21, 21, 21, 21, 21, 21, 21, 21, 21, 21, 21, 21, 21, 21, 21, 21, 21, 21, 21, 21, 21, 21, 21, 21, 21, 21, 21, 21
      | 23, 23, 23, 23, 23, 23, 23, 23, 23, 23, 23, 23, 23, 23, 23, 23, 23, 23, 23, 23, 23, 23, 23, 23, 23, 23, 23, 23, 23, 23|];
suc = [ { 4, 11, 13 },
       { 5, 9, 22 },
       { 7, 9, 18 },
       { 7, 15, 23 },
       { 6, 8, 10 },
       { 14, 16, 19 },
       { 24, 26, 30 },
       { 17, 25, 30 },
       { 10, 11, 12 },
       { 15, 16, 17 },
       { 14, 23, 24 },
       { 14, 17, 19 },
       { 16, 18, 19 },
       { 15 },
       { 21, 25 },
       { 21, 30 },
       { 20 },
       { 20, 22, 23 },
       { 26, 28 },
       { 21, 24, 29 },
       { 28 },
       { 26, 27 },
       { 25, 27 },
       { 27 },
       { 29 },
       { 29 },
       { 28 },
       {  },
       {  },
       {  } ];
